38 174
33 32 43 25 49 13 37 30 49 20 32 24 48 49 24 48 46 25 39 24 37 19 34 33 35 50 20 11 15 10 36 19 45 11 29 20 29 50
19 41 34 16 23 35 39 33 21 13 47 21 48 27 33 25 35 47 24 13 28 48 23 16 38 37 13 17 31 17 10 22 32 13 24 35 21 16
